\ENCODING=ISO-8859-1
\Problem name: 

Minimize
 obj: 76 y_0,1 + 3 y_0,2 + 86 y_0,3 + 70 y_0,4 + 13 y_0,5 + 36 y_0,6 + 62 y_0,7
      + 54 y_0,8 + 70 y_0,9 + 76 y_1,0 + 47 y_1,2 + 41 y_1,3 + 70 y_1,4
      + 50 y_1,5 + 38 y_1,6 + 66 y_1,7 + 10 y_1,8 + 79 y_1,9 + 3 y_2,0
      + 47 y_2,1 + 56 y_2,3 + 94 y_2,4 + 38 y_2,5 + 7 y_2,6 + 79 y_2,7
      + 60 y_2,8 + 25 y_2,9 + 86 y_3,0 + 41 y_3,1 + 56 y_3,2 + 19 y_3,4
      + 96 y_3,5 + 73 y_3,6 + 27 y_3,7 + 35 y_3,8 + 15 y_3,9 + 70 y_4,0
      + 70 y_4,1 + 94 y_4,2 + 19 y_4,3 + 61 y_4,5 + 20 y_4,6 + 22 y_4,7
      + 74 y_4,8 + 83 y_4,9 + 13 y_5,0 + 50 y_5,1 + 38 y_5,2 + 96 y_5,3
      + 61 y_5,4 + 81 y_5,6 + 76 y_5,7 + 77 y_5,8 + 45 y_5,9 + 36 y_6,0
      + 38 y_6,1 + 7 y_6,2 + 73 y_6,3 + 20 y_6,4 + 81 y_6,5 + 98 y_6,7
      + 40 y_6,8 + 81 y_6,9 + 62 y_7,0 + 66 y_7,1 + 79 y_7,2 + 27 y_7,3
      + 22 y_7,4 + 76 y_7,5 + 98 y_7,6 + 40 y_7,8 + 67 y_7,9 + 54 y_8,0
      + 10 y_8,1 + 60 y_8,2 + 35 y_8,3 + 74 y_8,4 + 77 y_8,5 + 40 y_8,6
      + 40 y_8,7 + 43 y_8,9 + 70 y_9,0 + 79 y_9,1 + 25 y_9,2 + 15 y_9,3
      + 83 y_9,4 + 45 y_9,5 + 81 y_9,6 + 67 y_9,7 + 43 y_9,8
Subject To
 flux:     x_0,1 + x_0,2 + x_0,3 + x_0,4 + x_0,5 + x_0,6 + x_0,7 + x_0,8
           + x_0,9  = 10
 delta_2:  x_0,1 - x_1,0 - x_1,2 - x_1,3 - x_1,4 - x_1,5 - x_1,6 - x_1,7
           - x_1,8 - x_1,9 + x_2,1 + x_3,1 + x_4,1 + x_5,1 + x_6,1 + x_7,1
           + x_8,1 + x_9,1  = 1
 delta_3:  x_0,2 + x_1,2 - x_2,0 - x_2,1 - x_2,3 - x_2,4 - x_2,5 - x_2,6
           - x_2,7 - x_2,8 - x_2,9 + x_3,2 + x_4,2 + x_5,2 + x_6,2 + x_7,2
           + x_8,2 + x_9,2  = 1
 delta_4:  x_0,3 + x_1,3 + x_2,3 - x_3,0 - x_3,1 - x_3,2 - x_3,4 - x_3,5
           - x_3,6 - x_3,7 - x_3,8 - x_3,9 + x_4,3 + x_5,3 + x_6,3 + x_7,3
           + x_8,3 + x_9,3  = 1
 delta_5:  x_0,4 + x_1,4 + x_2,4 + x_3,4 - x_4,0 - x_4,1 - x_4,2 - x_4,3
           - x_4,5 - x_4,6 - x_4,7 - x_4,8 - x_4,9 + x_5,4 + x_6,4 + x_7,4
           + x_8,4 + x_9,4  = 1
 delta_6:  x_0,5 + x_1,5 + x_2,5 + x_3,5 + x_4,5 - x_5,0 - x_5,1 - x_5,2
           - x_5,3 - x_5,4 - x_5,6 - x_5,7 - x_5,8 - x_5,9 + x_6,5 + x_7,5
           + x_8,5 + x_9,5  = 1
 delta_7:  x_0,6 + x_1,6 + x_2,6 + x_3,6 + x_4,6 + x_5,6 - x_6,0 - x_6,1
           - x_6,2 - x_6,3 - x_6,4 - x_6,5 - x_6,7 - x_6,8 - x_6,9 + x_7,6
           + x_8,6 + x_9,6  = 1
 delta_8:  x_0,7 + x_1,7 + x_2,7 + x_3,7 + x_4,7 + x_5,7 + x_6,7 - x_7,0
           - x_7,1 - x_7,2 - x_7,3 - x_7,4 - x_7,5 - x_7,6 - x_7,8 - x_7,9
           + x_8,7 + x_9,7  = 1
 delta_9:  x_0,8 + x_1,8 + x_2,8 + x_3,8 + x_4,8 + x_5,8 + x_6,8 + x_7,8
           - x_8,0 - x_8,1 - x_8,2 - x_8,3 - x_8,4 - x_8,5 - x_8,6 - x_8,7
           - x_8,9 + x_9,8  = 1
 delta_10: x_0,9 + x_1,9 + x_2,9 + x_3,9 + x_4,9 + x_5,9 + x_6,9 + x_7,9
           + x_8,9 - x_9,0 - x_9,1 - x_9,2 - x_9,3 - x_9,4 - x_9,5 - x_9,6
           - x_9,7 - x_9,8  = 1
 out_1:    y_0,1 + y_0,2 + y_0,3 + y_0,4 + y_0,5 + y_0,6 + y_0,7 + y_0,8
           + y_0,9  = 1
 out_2:    y_1,0 + y_1,2 + y_1,3 + y_1,4 + y_1,5 + y_1,6 + y_1,7 + y_1,8
           + y_1,9  = 1
 out_3:    y_2,0 + y_2,1 + y_2,3 + y_2,4 + y_2,5 + y_2,6 + y_2,7 + y_2,8
           + y_2,9  = 1
 out_4:    y_3,0 + y_3,1 + y_3,2 + y_3,4 + y_3,5 + y_3,6 + y_3,7 + y_3,8
           + y_3,9  = 1
 out_5:    y_4,0 + y_4,1 + y_4,2 + y_4,3 + y_4,5 + y_4,6 + y_4,7 + y_4,8
           + y_4,9  = 1
 out_6:    y_5,0 + y_5,1 + y_5,2 + y_5,3 + y_5,4 + y_5,6 + y_5,7 + y_5,8
           + y_5,9  = 1
 out_7:    y_6,0 + y_6,1 + y_6,2 + y_6,3 + y_6,4 + y_6,5 + y_6,7 + y_6,8
           + y_6,9  = 1
 out_8:    y_7,0 + y_7,1 + y_7,2 + y_7,3 + y_7,4 + y_7,5 + y_7,6 + y_7,8
           + y_7,9  = 1
 out_9:    y_8,0 + y_8,1 + y_8,2 + y_8,3 + y_8,4 + y_8,5 + y_8,6 + y_8,7
           + y_8,9  = 1
 out_10:   y_9,0 + y_9,1 + y_9,2 + y_9,3 + y_9,4 + y_9,5 + y_9,6 + y_9,7
           + y_9,8  = 1
 in_1:     y_1,0 + y_2,0 + y_3,0 + y_4,0 + y_5,0 + y_6,0 + y_7,0 + y_8,0
           + y_9,0  = 1
 in_2:     y_0,1 + y_2,1 + y_3,1 + y_4,1 + y_5,1 + y_6,1 + y_7,1 + y_8,1
           + y_9,1  = 1
 in_3:     y_0,2 + y_1,2 + y_3,2 + y_4,2 + y_5,2 + y_6,2 + y_7,2 + y_8,2
           + y_9,2  = 1
 in_4:     y_0,3 + y_1,3 + y_2,3 + y_4,3 + y_5,3 + y_6,3 + y_7,3 + y_8,3
           + y_9,3  = 1
 in_5:     y_0,4 + y_1,4 + y_2,4 + y_3,4 + y_5,4 + y_6,4 + y_7,4 + y_8,4
           + y_9,4  = 1
 in_6:     y_0,5 + y_1,5 + y_2,5 + y_3,5 + y_4,5 + y_6,5 + y_7,5 + y_8,5
           + y_9,5  = 1
 in_7:     y_0,6 + y_1,6 + y_2,6 + y_3,6 + y_4,6 + y_5,6 + y_7,6 + y_8,6
           + y_9,6  = 1
 in_8:     y_0,7 + y_1,7 + y_2,7 + y_3,7 + y_4,7 + y_5,7 + y_6,7 + y_8,7
           + y_9,7  = 1
 in_9:     y_0,8 + y_1,8 + y_2,8 + y_3,8 + y_4,8 + y_5,8 + y_6,8 + y_7,8
           + y_9,8  = 1
 in_10:    y_0,9 + y_1,9 + y_2,9 + y_3,9 + y_4,9 + y_5,9 + y_6,9 + y_7,9
           + y_8,9  = 1
 att_0_1:  x_0,1 - 10 y_0,1 <= 0
 att_0_2:  x_0,2 - 10 y_0,2 <= 0
 att_0_3:  x_0,3 - 10 y_0,3 <= 0
 att_0_4:  x_0,4 - 10 y_0,4 <= 0
 att_0_5:  x_0,5 - 10 y_0,5 <= 0
 att_0_6:  x_0,6 - 10 y_0,6 <= 0
 att_0_7:  x_0,7 - 10 y_0,7 <= 0
 att_0_8:  x_0,8 - 10 y_0,8 <= 0
 att_0_9:  x_0,9 - 10 y_0,9 <= 0
 att_1_0:  x_1,0 - 10 y_1,0 <= 0
 att_1_2:  x_1,2 - 10 y_1,2 <= 0
 att_1_3:  x_1,3 - 10 y_1,3 <= 0
 att_1_4:  x_1,4 - 10 y_1,4 <= 0
 att_1_5:  x_1,5 - 10 y_1,5 <= 0
 att_1_6:  x_1,6 - 10 y_1,6 <= 0
 att_1_7:  x_1,7 - 10 y_1,7 <= 0
 att_1_8:  x_1,8 - 10 y_1,8 <= 0
 att_1_9:  x_1,9 - 10 y_1,9 <= 0
 att_2_0:  x_2,0 - 10 y_2,0 <= 0
 att_2_1:  x_2,1 - 10 y_2,1 <= 0
 att_2_3:  x_2,3 - 10 y_2,3 <= 0
 att_2_4:  x_2,4 - 10 y_2,4 <= 0
 att_2_5:  x_2,5 - 10 y_2,5 <= 0
 att_2_6:  x_2,6 - 10 y_2,6 <= 0
 att_2_7:  x_2,7 - 10 y_2,7 <= 0
 att_2_8:  x_2,8 - 10 y_2,8 <= 0
 att_2_9:  x_2,9 - 10 y_2,9 <= 0
 att_3_0:  x_3,0 - 10 y_3,0 <= 0
 att_3_1:  x_3,1 - 10 y_3,1 <= 0
 att_3_2:  x_3,2 - 10 y_3,2 <= 0
 att_3_4:  x_3,4 - 10 y_3,4 <= 0
 att_3_5:  x_3,5 - 10 y_3,5 <= 0
 att_3_6:  x_3,6 - 10 y_3,6 <= 0
 att_3_7:  x_3,7 - 10 y_3,7 <= 0
 att_3_8:  x_3,8 - 10 y_3,8 <= 0
 att_3_9:  x_3,9 - 10 y_3,9 <= 0
 att_4_0:  x_4,0 - 10 y_4,0 <= 0
 att_4_1:  x_4,1 - 10 y_4,1 <= 0
 att_4_2:  x_4,2 - 10 y_4,2 <= 0
 att_4_3:  x_4,3 - 10 y_4,3 <= 0
 att_4_5:  x_4,5 - 10 y_4,5 <= 0
 att_4_6:  x_4,6 - 10 y_4,6 <= 0
 att_4_7:  x_4,7 - 10 y_4,7 <= 0
 att_4_8:  x_4,8 - 10 y_4,8 <= 0
 att_4_9:  x_4,9 - 10 y_4,9 <= 0
 att_5_0:  x_5,0 - 10 y_5,0 <= 0
 att_5_1:  x_5,1 - 10 y_5,1 <= 0
 att_5_2:  x_5,2 - 10 y_5,2 <= 0
 att_5_3:  x_5,3 - 10 y_5,3 <= 0
 att_5_4:  x_5,4 - 10 y_5,4 <= 0
 att_5_6:  x_5,6 - 10 y_5,6 <= 0
 att_5_7:  x_5,7 - 10 y_5,7 <= 0
 att_5_8:  x_5,8 - 10 y_5,8 <= 0
 att_5_9:  x_5,9 - 10 y_5,9 <= 0
 att_6_0:  x_6,0 - 10 y_6,0 <= 0
 att_6_1:  x_6,1 - 10 y_6,1 <= 0
 att_6_2:  x_6,2 - 10 y_6,2 <= 0
 att_6_3:  x_6,3 - 10 y_6,3 <= 0
 att_6_4:  x_6,4 - 10 y_6,4 <= 0
 att_6_5:  x_6,5 - 10 y_6,5 <= 0
 att_6_7:  x_6,7 - 10 y_6,7 <= 0
 att_6_8:  x_6,8 - 10 y_6,8 <= 0
 att_6_9:  x_6,9 - 10 y_6,9 <= 0
 att_7_0:  x_7,0 - 10 y_7,0 <= 0
 att_7_1:  x_7,1 - 10 y_7,1 <= 0
 att_7_2:  x_7,2 - 10 y_7,2 <= 0
 att_7_3:  x_7,3 - 10 y_7,3 <= 0
 att_7_4:  x_7,4 - 10 y_7,4 <= 0
 att_7_5:  x_7,5 - 10 y_7,5 <= 0
 att_7_6:  x_7,6 - 10 y_7,6 <= 0
 att_7_8:  x_7,8 - 10 y_7,8 <= 0
 att_7_9:  x_7,9 - 10 y_7,9 <= 0
 att_8_0:  x_8,0 - 10 y_8,0 <= 0
 att_8_1:  x_8,1 - 10 y_8,1 <= 0
 att_8_2:  x_8,2 - 10 y_8,2 <= 0
 att_8_3:  x_8,3 - 10 y_8,3 <= 0
 att_8_4:  x_8,4 - 10 y_8,4 <= 0
 att_8_5:  x_8,5 - 10 y_8,5 <= 0
 att_8_6:  x_8,6 - 10 y_8,6 <= 0
 att_8_7:  x_8,7 - 10 y_8,7 <= 0
 att_8_9:  x_8,9 - 10 y_8,9 <= 0
 att_9_0:  x_9,0 - 10 y_9,0 <= 0
 att_9_1:  x_9,1 - 10 y_9,1 <= 0
 att_9_2:  x_9,2 - 10 y_9,2 <= 0
 att_9_3:  x_9,3 - 10 y_9,3 <= 0
 att_9_4:  x_9,4 - 10 y_9,4 <= 0
 att_9_5:  x_9,5 - 10 y_9,5 <= 0
 att_9_6:  x_9,6 - 10 y_9,6 <= 0
 att_9_7:  x_9,7 - 10 y_9,7 <= 0
 att_9_8:  x_9,8 - 10 y_9,8 <= 0
Bounds
      x_0,1 >= 0
      x_0,2 >= 0
      x_0,3 >= 0
      x_0,4 >= 0
      x_0,5 >= 0
      x_0,6 >= 0
      x_0,7 >= 0
      x_0,8 >= 0
      x_0,9 >= 0
      x_1,0 >= 0
      x_1,2 >= 0
      x_1,3 >= 0
      x_1,4 >= 0
      x_1,5 >= 0
      x_1,6 >= 0
      x_1,7 >= 0
      x_1,8 >= 0
      x_1,9 >= 0
      x_2,0 >= 0
      x_2,1 >= 0
      x_2,3 >= 0
      x_2,4 >= 0
      x_2,5 >= 0
      x_2,6 >= 0
      x_2,7 >= 0
      x_2,8 >= 0
      x_2,9 >= 0
      x_3,0 >= 0
      x_3,1 >= 0
      x_3,2 >= 0
      x_3,4 >= 0
      x_3,5 >= 0
      x_3,6 >= 0
      x_3,7 >= 0
      x_3,8 >= 0
      x_3,9 >= 0
      x_4,0 >= 0
      x_4,1 >= 0
      x_4,2 >= 0
      x_4,3 >= 0
      x_4,5 >= 0
      x_4,6 >= 0
      x_4,7 >= 0
      x_4,8 >= 0
      x_4,9 >= 0
      x_5,0 >= 0
      x_5,1 >= 0
      x_5,2 >= 0
      x_5,3 >= 0
      x_5,4 >= 0
      x_5,6 >= 0
      x_5,7 >= 0
      x_5,8 >= 0
      x_5,9 >= 0
      x_6,0 >= 0
      x_6,1 >= 0
      x_6,2 >= 0
      x_6,3 >= 0
      x_6,4 >= 0
      x_6,5 >= 0
      x_6,7 >= 0
      x_6,8 >= 0
      x_6,9 >= 0
      x_7,0 >= 0
      x_7,1 >= 0
      x_7,2 >= 0
      x_7,3 >= 0
      x_7,4 >= 0
      x_7,5 >= 0
      x_7,6 >= 0
      x_7,8 >= 0
      x_7,9 >= 0
      x_8,0 >= 0
      x_8,1 >= 0
      x_8,2 >= 0
      x_8,3 >= 0
      x_8,4 >= 0
      x_8,5 >= 0
      x_8,6 >= 0
      x_8,7 >= 0
      x_8,9 >= 0
      x_9,0 >= 0
      x_9,1 >= 0
      x_9,2 >= 0
      x_9,3 >= 0
      x_9,4 >= 0
      x_9,5 >= 0
      x_9,6 >= 0
      x_9,7 >= 0
      x_9,8 >= 0
 0 <= y_0,1 <= Inf
 0 <= y_0,2 <= Inf
 0 <= y_0,3 <= Inf
 0 <= y_0,4 <= Inf
 0 <= y_0,5 <= Inf
 0 <= y_0,6 <= Inf
 0 <= y_0,7 <= Inf
 0 <= y_0,8 <= Inf
 0 <= y_0,9 <= Inf
 0 <= y_1,0 <= Inf
 0 <= y_1,2 <= Inf
 0 <= y_1,3 <= Inf
 0 <= y_1,4 <= Inf
 0 <= y_1,5 <= Inf
 0 <= y_1,6 <= Inf
 0 <= y_1,7 <= Inf
 0 <= y_1,8 <= Inf
 0 <= y_1,9 <= Inf
 0 <= y_2,0 <= Inf
 0 <= y_2,1 <= Inf
 0 <= y_2,3 <= Inf
 0 <= y_2,4 <= Inf
 0 <= y_2,5 <= Inf
 0 <= y_2,6 <= Inf
 0 <= y_2,7 <= Inf
 0 <= y_2,8 <= Inf
 0 <= y_2,9 <= Inf
 0 <= y_3,0 <= Inf
 0 <= y_3,1 <= Inf
 0 <= y_3,2 <= Inf
 0 <= y_3,4 <= Inf
 0 <= y_3,5 <= Inf
 0 <= y_3,6 <= Inf
 0 <= y_3,7 <= Inf
 0 <= y_3,8 <= Inf
 0 <= y_3,9 <= Inf
 0 <= y_4,0 <= Inf
 0 <= y_4,1 <= Inf
 0 <= y_4,2 <= Inf
 0 <= y_4,3 <= Inf
 0 <= y_4,5 <= Inf
 0 <= y_4,6 <= Inf
 0 <= y_4,7 <= Inf
 0 <= y_4,8 <= Inf
 0 <= y_4,9 <= Inf
 0 <= y_5,0 <= Inf
 0 <= y_5,1 <= Inf
 0 <= y_5,2 <= Inf
 0 <= y_5,3 <= Inf
 0 <= y_5,4 <= Inf
 0 <= y_5,6 <= Inf
 0 <= y_5,7 <= Inf
 0 <= y_5,8 <= Inf
 0 <= y_5,9 <= Inf
 0 <= y_6,0 <= Inf
 0 <= y_6,1 <= Inf
 0 <= y_6,2 <= Inf
 0 <= y_6,3 <= Inf
 0 <= y_6,4 <= Inf
 0 <= y_6,5 <= Inf
 0 <= y_6,7 <= Inf
 0 <= y_6,8 <= Inf
 0 <= y_6,9 <= Inf
 0 <= y_7,0 <= Inf
 0 <= y_7,1 <= Inf
 0 <= y_7,2 <= Inf
 0 <= y_7,3 <= Inf
 0 <= y_7,4 <= Inf
 0 <= y_7,5 <= Inf
 0 <= y_7,6 <= Inf
 0 <= y_7,8 <= Inf
 0 <= y_7,9 <= Inf
 0 <= y_8,0 <= Inf
 0 <= y_8,1 <= Inf
 0 <= y_8,2 <= Inf
 0 <= y_8,3 <= Inf
 0 <= y_8,4 <= Inf
 0 <= y_8,5 <= Inf
 0 <= y_8,6 <= Inf
 0 <= y_8,7 <= Inf
 0 <= y_8,9 <= Inf
 0 <= y_9,0 <= Inf
 0 <= y_9,1 <= Inf
 0 <= y_9,2 <= Inf
 0 <= y_9,3 <= Inf
 0 <= y_9,4 <= Inf
 0 <= y_9,5 <= Inf
 0 <= y_9,6 <= Inf
 0 <= y_9,7 <= Inf
 0 <= y_9,8 <= Inf
Binaries
 y_0,1  y_0,2  y_0,3  y_0,4  y_0,5  y_0,6  y_0,7  y_0,8  y_0,9  y_1,0  y_1,2 
 y_1,3  y_1,4  y_1,5  y_1,6  y_1,7  y_1,8  y_1,9  y_2,0  y_2,1  y_2,3  y_2,4 
 y_2,5  y_2,6  y_2,7  y_2,8  y_2,9  y_3,0  y_3,1  y_3,2  y_3,4  y_3,5  y_3,6 
 y_3,7  y_3,8  y_3,9  y_4,0  y_4,1  y_4,2  y_4,3  y_4,5  y_4,6  y_4,7  y_4,8 
 y_4,9  y_5,0  y_5,1  y_5,2  y_5,3  y_5,4  y_5,6  y_5,7  y_5,8  y_5,9  y_6,0 
 y_6,1  y_6,2  y_6,3  y_6,4  y_6,5  y_6,7  y_6,8  y_6,9  y_7,0  y_7,1  y_7,2 
 y_7,3  y_7,4  y_7,5  y_7,6  y_7,8  y_7,9  y_8,0  y_8,1  y_8,2  y_8,3  y_8,4 
 y_8,5  y_8,6  y_8,7  y_8,9  y_9,0  y_9,1  y_9,2  y_9,3  y_9,4  y_9,5  y_9,6 
 y_9,7  y_9,8 
Generals
 x_0,1  x_0,2  x_0,3  x_0,4  x_0,5  x_0,6  x_0,7  x_0,8  x_0,9  x_1,0  x_1,2 
 x_1,3  x_1,4  x_1,5  x_1,6  x_1,7  x_1,8  x_1,9  x_2,0  x_2,1  x_2,3  x_2,4 
 x_2,5  x_2,6  x_2,7  x_2,8  x_2,9  x_3,0  x_3,1  x_3,2  x_3,4  x_3,5  x_3,6 
 x_3,7  x_3,8  x_3,9  x_4,0  x_4,1  x_4,2  x_4,3  x_4,5  x_4,6  x_4,7  x_4,8 
 x_4,9  x_5,0  x_5,1  x_5,2  x_5,3  x_5,4  x_5,6  x_5,7  x_5,8  x_5,9  x_6,0 
 x_6,1  x_6,2  x_6,3  x_6,4  x_6,5  x_6,7  x_6,8  x_6,9  x_7,0  x_7,1  x_7,2 
 x_7,3  x_7,4  x_7,5  x_7,6  x_7,8  x_7,9  x_8,0  x_8,1  x_8,2  x_8,3  x_8,4 
 x_8,5  x_8,6  x_8,7  x_8,9  x_9,0  x_9,1  x_9,2  x_9,3  x_9,4  x_9,5  x_9,6 
 x_9,7  x_9,8 
End
